Version identifier: 22.1.1.0 | 2022-11-28 | 9160aff4d
CPXPARAM_Threads                                 1
CPXPARAM_MIP_Strategy_VariableSelect             3
CPXPARAM_TimeLimit                               599.99999383099998
1 of 1 MIP starts provided solutions.
MIP start 'm1' defined initial solution with objective 47.0000.
Tried aggregator 1 time.
MIP Presolve eliminated 409 rows and 796 columns.
MIP Presolve modified 26 coefficients.
Reduced MIP has 798 rows, 1791 columns, and 30259 nonzeros.
Reduced MIP has 1791 binaries, 0 generals, 0 SOSs, and 0 indicators.
Presolve time = 0.02 sec. (52.45 ticks)
Probing time = 0.00 sec. (8.55 ticks)
Tried aggregator 1 time.
Detecting symmetries...
MIP Presolve modified 6 coefficients.
Reduced MIP has 798 rows, 1791 columns, and 30424 nonzeros.
Reduced MIP has 1791 binaries, 0 generals, 0 SOSs, and 0 indicators.
Presolve time = 0.02 sec. (44.90 ticks)
Probing time = 0.00 sec. (8.56 ticks)
Clique table members: 399.
MIP emphasis: balance optimality and feasibility.
MIP search method: dynamic search.
Parallel mode: none, using 1 thread.
Root relaxation solution time = 0.01 sec. (12.70 ticks)

        Nodes                                         Cuts/
   Node  Left     Objective  IInf  Best Integer    Best Bound    ItCnt     Gap

*     0+    0                           47.0000    19900.0000              --- 
*     0     0      integral     0      199.0000      199.0000      380    0.00%
Elapsed time = 0.07 sec. (144.14 ticks, tree = 0.00 MB, solutions = 2)

Root node processing (before b&c):
  Real time             =    0.07 sec. (144.24 ticks)
Sequential b&c:
  Real time             =    0.00 sec. (0.00 ticks)
                          ------------
Total (root+branch&cut) =    0.07 sec. (144.24 ticks)
Primal:	199
Dual:	199
Status:	Optimal
Time:	0.07
Sequence:
	10
	8
	10
	5
	5
	9
	10
	5
	9
	5
	10
	10
	9
	10
	10
	9
	5
	5
	9
	9
	5
	5
	9
	0
	5
	5
	9
	0
	5
	5
	9
	5
	5
	9
	5
	9
	5
	5
	9
	5
	9
	10
	10
	9
	5
	5
	0
	4
	5
	1
	1
	4
	4
	1
	0
	1
	4
	0
	1
	4
	4
	0
	1
	4
	4
	1
	5
	4
	1
	5
	9
	1
	1
	0
	4
	5
	0
	9
	10
	9
	9
	5
	5
	9
	1
	9
	4
	9
	9
	1
	0
	1
	4
	5
	0
	5
	9
	1
	10
	4
	0
	9
	5
	1
	1
	9
	1
	1
	9
	1
	9
	1
	0
	4
	4
	9
	4
	9
	5
	4
	0
	4
	5
	0
	10
	4
	10
	0
	5
	9
	9
	0
	9
	5
	4
	1
	9
	4
	4
	0
	4
	5
	1
	5
	4
	1
	4
	5
	0
	4
	5
	0
	5
	9
	9
	0
	5
	9
	9
	5
	0
	10
	9
	9
	0
	4
	9
	4
	10
	0
	3
	9
	0
	9
	9
	1
	9
	0
	5
	4
	1
	1
	1
	9
	9
	5
	0
	4
	5
	1
	9
	0
	1
	4
	10
	1
	1
	4
	1
